data/MCDM/NO_CORR/GEN_FROM_60/14_ITEMS_1000_GEN/K5014W04.KNP.mps
NAME          BLANK   
ROWS
 N  OBJROW
 L  R0000000
COLUMNS
    C0000000  OBJROW     -799.         R0000000  301.        
    C0000001  OBJROW     -376.         R0000000  516.        
    C0000002  OBJROW     -74.          R0000000  623.        
    C0000003  OBJROW     -267.         R0000000  928.        
    C0000004  OBJROW     -121.         R0000000  864.        
    C0000005  OBJROW     -586.         R0000000  217.        
    C0000006  OBJROW     -447.         R0000000  584.        
    C0000007  OBJROW     -425.         R0000000  653.        
    C0000008  OBJROW     -170.         R0000000  136.        
    C0000009  OBJROW     -51.          R0000000  897.        
    C0000010  OBJROW     -24.          R0000000  449.        
    C0000011  OBJROW     -913.         R0000000  729.        
    C0000012  OBJROW     -25.          R0000000  184.        
    C0000013  OBJROW     -928.         R0000000  963.        
RHS
    RHS       R0000000  15344.      
BOUNDS
 BV BOUND     C0000000  1.          
 BV BOUND     C0000001  1.          
 BV BOUND     C0000002  1.          
 BV BOUND     C0000003  1.          
 BV BOUND     C0000004  1.          
 BV BOUND     C0000005  1.          
 BV BOUND     C0000006  1.          
 BV BOUND     C0000007  1.          
 BV BOUND     C0000008  1.          
 BV BOUND     C0000009  1.          
 BV BOUND     C0000010  1.          
 BV BOUND     C0000011  1.          
 BV BOUND     C0000012  1.          
 BV BOUND     C0000013  1.          
ENDATA
