data/MCDM/NO_CORR/GEN_FROM_60/14_ITEMS_1000_GEN/K5014W04.KNP.txt
N 14
M 15
LC 14
LC 15
LC 16
LC 17
LC 18
LC 19
LC 20
LC 21
LC 22
LC 23
LC 24
LC 25
LC 26
LC 27
LR 1
LR 2
LR 3
LR 4
LR 5
LR 6
LR 7
LR 8
LR 9
LR 10
LR 11
LR 12
LR 13
LR 14
LR 15
LO -799
LO -376
LO -74
LO -267
LO -121
LO -586
LO -447
LO -425
LO -170
LO -51
LO -24
LO -913
LO -25
LO -928
OS 1
IC 553
IC 564
IC 15
IC 401
IC 711
IC 500
IC 741
IC 381
IC 143
IC 237
IC 429
IC 53
IC 215
IC 189
IB 2566
